c Sudoku solution
p cnf 729 0
118 0
189 0
227 0
235 0
242 0
269 0
288 0
324 0
345 0
371 0
433 0
458 0
368 0
476 0
543 0
587 0
612 0
628 0
665 0
764 0
821 0
852 0
867 0
883 0
926 0
949 0
982 0
386 0
681 0
785 0
955 0
815 0
484 0
525 0
429 0
495 0
462 0
175 0
572 0
598 0
559 0
273 0
294 0
679 0
693 0
144 0
654 0
777 0
991 0
963 0
353 0
157 0
123 0
319 0
332 0
192 0
397 0
713 0
722 0
131 0
216 0
166 0
251 0
756 0
741 0
848 0
799 0
896 0
738 0
839 0
874 0
978 0
447 0
561 0
646 0
411 0
514 0
536 0
637 0
917 0
934 0
